24

1 17 12
2 16 17
3 16 17
4 21 8
5 1 23
6 22 20
7 11 22
8 11 14
9 11 7
10 8 12
11 20 15
12 10 5
13 3 24
14 12 13
15 16 2
16 3 24
17 4 13
18 23 10
19 8 9
20 14 4
21 23 2
22 6 5
23 22 24
24 14 19

100
